c n orig vars 62
p cnf 161 410
63 -1 0
63 -2 0
-63 1 2 0
64 -3 0
64 -4 0
-64 3 4 0
65 -5 0
65 -6 0
-65 5 6 0
66 -7 0
66 -8 0
-66 7 8 0
67 -9 0
67 -10 0
-67 9 10 0
68 -11 0
68 -12 0
-68 11 12 0
69 -13 0
69 -14 0
-69 13 14 0
70 -15 0
70 -16 0
-70 15 16 0
71 -17 0
71 -18 0
-71 17 18 0
72 -19 0
72 -20 0
-72 19 20 0
73 -21 0
73 -22 0
-73 21 22 0
74 -23 0
74 -24 0
-74 23 24 0
75 -25 0
75 -26 0
-75 25 26 0
76 -27 0
76 -28 0
-76 27 28 0
77 -29 0
77 -30 0
-77 29 30 0
78 -31 0
78 -32 0
-78 31 32 0
-79 63 0
-79 64 0
-79 65 0
-79 66 0
-79 67 0
-79 68 0
-79 69 0
-79 70 0
-79 71 0
-79 72 0
-79 73 0
-79 74 0
-79 75 0
-79 76 0
-79 77 0
-79 78 0
79 -63 -64 -65 -66 -67 -68 -69 -70 -71 -72 -73 -74 -75 -76 -77 -78 0
-79 0
80 -33 0
80 -39 0
80 -45 0
80 -51 0
80 -57 0
-80 33 39 45 51 57 0
81 -34 0
81 -40 0
81 -46 0
81 -52 0
81 -58 0
-81 34 40 46 52 58 0
82 -35 0
82 -41 0
82 -47 0
82 -53 0
82 -59 0
-82 35 41 47 53 59 0
83 -36 0
83 -42 0
83 -48 0
83 -54 0
83 -60 0
-83 36 42 48 54 60 0
84 -37 0
84 -43 0
84 -49 0
84 -55 0
84 -61 0
-84 37 43 49 55 61 0
85 -38 0
85 -44 0
85 -50 0
85 -56 0
85 -62 0
-85 38 44 50 56 62 0
86 33 0
86 34 0
-86 -33 -34 0
87 33 0
87 35 0
-87 -33 -35 0
88 33 0
88 36 0
-88 -33 -36 0
89 33 0
89 37 0
-89 -33 -37 0
90 33 0
90 38 0
-90 -33 -38 0
91 34 0
91 35 0
-91 -34 -35 0
92 34 0
92 36 0
-92 -34 -36 0
93 34 0
93 37 0
-93 -34 -37 0
94 34 0
94 38 0
-94 -34 -38 0
95 35 0
95 36 0
-95 -35 -36 0
96 35 0
96 37 0
-96 -35 -37 0
97 35 0
97 38 0
-97 -35 -38 0
98 36 0
98 37 0
-98 -36 -37 0
99 36 0
99 38 0
-99 -36 -38 0
100 37 0
100 38 0
-100 -37 -38 0
101 39 0
101 40 0
-101 -39 -40 0
102 39 0
102 41 0
-102 -39 -41 0
103 39 0
103 42 0
-103 -39 -42 0
104 39 0
104 43 0
-104 -39 -43 0
105 39 0
105 44 0
-105 -39 -44 0
106 40 0
106 41 0
-106 -40 -41 0
107 40 0
107 42 0
-107 -40 -42 0
108 40 0
108 43 0
-108 -40 -43 0
109 40 0
109 44 0
-109 -40 -44 0
110 41 0
110 42 0
-110 -41 -42 0
111 41 0
111 43 0
-111 -41 -43 0
112 41 0
112 44 0
-112 -41 -44 0
113 42 0
113 43 0
-113 -42 -43 0
114 42 0
114 44 0
-114 -42 -44 0
115 43 0
115 44 0
-115 -43 -44 0
116 45 0
116 46 0
-116 -45 -46 0
117 45 0
117 47 0
-117 -45 -47 0
118 45 0
118 48 0
-118 -45 -48 0
119 45 0
119 49 0
-119 -45 -49 0
120 45 0
120 50 0
-120 -45 -50 0
121 46 0
121 47 0
-121 -46 -47 0
122 46 0
122 48 0
-122 -46 -48 0
123 46 0
123 49 0
-123 -46 -49 0
124 46 0
124 50 0
-124 -46 -50 0
125 47 0
125 48 0
-125 -47 -48 0
126 47 0
126 49 0
-126 -47 -49 0
127 47 0
127 50 0
-127 -47 -50 0
128 48 0
128 49 0
-128 -48 -49 0
129 48 0
129 50 0
-129 -48 -50 0
130 49 0
130 50 0
-130 -49 -50 0
131 51 0
131 52 0
-131 -51 -52 0
132 51 0
132 53 0
-132 -51 -53 0
133 51 0
133 54 0
-133 -51 -54 0
134 51 0
134 55 0
-134 -51 -55 0
135 51 0
135 56 0
-135 -51 -56 0
136 52 0
136 53 0
-136 -52 -53 0
137 52 0
137 54 0
-137 -52 -54 0
138 52 0
138 55 0
-138 -52 -55 0
139 52 0
139 56 0
-139 -52 -56 0
140 53 0
140 54 0
-140 -53 -54 0
141 53 0
141 55 0
-141 -53 -55 0
142 53 0
142 56 0
-142 -53 -56 0
143 54 0
143 55 0
-143 -54 -55 0
144 54 0
144 56 0
-144 -54 -56 0
145 55 0
145 56 0
-145 -55 -56 0
146 57 0
146 58 0
-146 -57 -58 0
147 57 0
147 59 0
-147 -57 -59 0
148 57 0
148 60 0
-148 -57 -60 0
149 57 0
149 61 0
-149 -57 -61 0
150 57 0
150 62 0
-150 -57 -62 0
151 58 0
151 59 0
-151 -58 -59 0
152 58 0
152 60 0
-152 -58 -60 0
153 58 0
153 61 0
-153 -58 -61 0
154 58 0
154 62 0
-154 -58 -62 0
155 59 0
155 60 0
-155 -59 -60 0
156 59 0
156 61 0
-156 -59 -61 0
157 59 0
157 62 0
-157 -59 -62 0
158 60 0
158 61 0
-158 -60 -61 0
159 60 0
159 62 0
-159 -60 -62 0
160 61 0
160 62 0
-160 -61 -62 0
-161 80 0
-161 81 0
-161 82 0
-161 83 0
-161 84 0
-161 85 0
-161 86 0
-161 87 0
-161 88 0
-161 89 0
-161 90 0
-161 91 0
-161 92 0
-161 93 0
-161 94 0
-161 95 0
-161 96 0
-161 97 0
-161 98 0
-161 99 0
-161 100 0
-161 101 0
-161 102 0
-161 103 0
-161 104 0
-161 105 0
-161 106 0
-161 107 0
-161 108 0
-161 109 0
-161 110 0
-161 111 0
-161 112 0
-161 113 0
-161 114 0
-161 115 0
-161 116 0
-161 117 0
-161 118 0
-161 119 0
-161 120 0
-161 121 0
-161 122 0
-161 123 0
-161 124 0
-161 125 0
-161 126 0
-161 127 0
-161 128 0
-161 129 0
-161 130 0
-161 131 0
-161 132 0
-161 133 0
-161 134 0
-161 135 0
-161 136 0
-161 137 0
-161 138 0
-161 139 0
-161 140 0
-161 141 0
-161 142 0
-161 143 0
-161 144 0
-161 145 0
-161 146 0
-161 147 0
-161 148 0
-161 149 0
-161 150 0
-161 151 0
-161 152 0
-161 153 0
-161 154 0
-161 155 0
-161 156 0
-161 157 0
-161 158 0
-161 159 0
-161 160 0
161 -80 -81 -82 -83 -84 -85 -86 -87 -88 -89 -90 -91 -92 -93 -94 -95 -96 -97 -98 -99 -100 -101 -102 -103 -104 -105 -106 -107 -108 -109 -110 -111 -112 -113 -114 -115 -116 -117 -118 -119 -120 -121 -122 -123 -124 -125 -126 -127 -128 -129 -130 -131 -132 -133 -134 -135 -136 -137 -138 -139 -140 -141 -142 -143 -144 -145 -146 -147 -148 -149 -150 -151 -152 -153 -154 -155 -156 -157 -158 -159 -160 0
-161 0
